(set-logic QF_NRA)
(declare-fun x1 () Real)
(declare-fun x2 () Real)
(declare-fun x3 () Real)
(declare-fun x4 () Real)
(declare-fun x5 () Real)
(declare-fun x6 () Real)
(declare-fun x7 () Real)

(assert (>= (- 7 ( + ( + (* 8 (* (* x1 x2) x2)) (* -5 (* (* x1 x3) x3)) ) (* -1 (* x4 x4)) )) 0))
(assert (>= (- 5 ( + ( + (* -7 (* (* x1 x2) x4)) (* 9 (* x2 x2)) ) (* 2 (* x5 x5)) )) 0))
(assert (>= (- -8 ( + (* 2 (* (* x1 x1) x6)) (* 6 (* x4 x5)) )) 0))
(assert (>= (- -9 ( + (* 9 (* (* x2 x7) x7)) (* -6 (* x1 x4)) )) 0))
(check-sat)
(exit)